sat
(
  (define-fun ProcProv3 () Int
    4)
  (define-fun C3_VM2 () Int
    0)
  (define-fun C1_VM3 () Int
    1)
  (define-fun ProcProv5 () Int
    4)
  (define-fun MemProv2 () Int
    68400)
  (define-fun C1_VM2 () Int
    0)
  (define-fun PriceProv4 () Int
    1288)
  (define-fun C5_VM1 () Int
    1)
  (define-fun PriceProv1 () Int
    402)
  (define-fun C1_VM6 () Int
    0)
  (define-fun C5_VM4 () Int
    1)
  (define-fun C2_VM3 () Int
    0)
  (define-fun C3_VM4 () Int
    1)
  (define-fun PriceProv5 () Int
    402)
  (define-fun ProcProv4 () Int
    8)
  (define-fun C1_VM5 () Int
    0)
  (define-fun C2_VM2 () Int
    0)
  (define-fun C5_VM6 () Int
    0)
  (define-fun PriceProv2 () Int
    1288)
  (define-fun StorageProv3 () Int
    1000)
  (define-fun C3_VM1 () Int
    0)
  (define-fun C3_VM5 () Int
    0)
  (define-fun C4_VM3 () Int
    0)
  (define-fun VM2Type () Int
    12)
  (define-fun VM6Type () Int
    0)
  (define-fun VM3Type () Int
    15)
  (define-fun PriceProv6 () Int
    0)
  (define-fun MemProv5 () Int
    15000)
  (define-fun C3_VM6 () Int
    0)
  (define-fun C5_VM3 () Int
    0)
  (define-fun C2_VM1 () Int
    1)
  (define-fun MemProv4 () Int
    68400)
  (define-fun C2_VM6 () Int
    0)
  (define-fun StorageProv5 () Int
    2000)
  (define-fun C5_VM5 () Int
    1)
  (define-fun C4_VM4 () Int
    0)
  (define-fun C4_VM6 () Int
    0)
  (define-fun ProcProv6 () Int
    7)
  (define-fun C3_VM3 () Int
    0)
  (define-fun ProcProv1 () Int
    4)
  (define-fun C2_VM5 () Int
    1)
  (define-fun VM5Type () Int
    13)
  (define-fun C4_VM5 () Int
    0)
  (define-fun C1_VM4 () Int
    0)
  (define-fun StorageProv1 () Int
    2000)
  (define-fun MemProv3 () Int
    30500)
  (define-fun C5_VM2 () Int
    0)
  (define-fun StorageProv4 () Int
    2000)
  (define-fun C2_VM4 () Int
    0)
  (define-fun StorageProv6 () Int
    2000)
  (define-fun C4_VM2 () Int
    1)
  (define-fun StorageProv2 () Int
    2000)
  (define-fun C4_VM1 () Int
    0)
  (define-fun VM1Type () Int
    13)
  (define-fun MemProv1 () Int
    15000)
  (define-fun ProcProv2 () Int
    8)
  (define-fun MemProv6 () Int
    244000)
  (define-fun PriceProv3 () Int
    379)
  (define-fun VM4Type () Int
    12)
  (define-fun C1_VM1 () Int
    0)
)
(objectives
 ( 17)
 ((+ 0 PriceProv1 PriceProv2 PriceProv3 PriceProv4 PriceProv5 PriceProv6) 3759)
)
(:added-eqs                   69696
 :arith-eq-adapter            8040
 :arith-bound-propagations-lp 5171
 :arith-conflicts             18
 :arith-diseq                 82490
 :arith-fixed-eqs             1565
 :arith-lower                 87570
 :arith-make-feasible         10061
 :arith-max-columns           125
 :arith-max-rows              20
 :arith-upper                 91057
 :binary-propagations         339259
 :conflicts                   1797
 :decisions                   18036
 :del-clause                  13245
 :final-checks                45
 :max-memory                  42.52
 :memory                      42.32
 :minimized-lits              12382
 :mk-bool-var                 16941
 :mk-clause                   14130
 :mk-clause-binary            2805
 :num-allocs                  17951434
 :num-checks                  46
 :pb-conflicts                642
 :pb-predicates               318
 :pb-propagations             9732
 :pb-resolves                 622
 :propagations                566732
 :restarts                    12
 :rlimit-count                3164546
 :solve-eqs-elim-vars         1
 :solve-eqs-steps             10
 :time                        0.15
 :total-time                  0.16)
